0 0 0 0
0 1 0 0
0 2 0 0
0 3 0 0
0 4 0 1
0 5 0 2
0 6 0 3
0 7 0 5
0 8 0 5
0 9 0 7
0 10 0 8
0 11 0 9
0 12 0 5
0 13 0 9
0 14 0 10
0 15 2 12
0 16 2 13
0 17 0 10
0 18 0 15
0 19 0 18
0 20 0 18
0 21 1 7
0 22 0 5
0 23 0 20
0 24 1 9
0 25 0 12
0 26 0 19
0 27 1 21
0 28 1 25
0 29 0 28
0 30 0 27
0 31 0 30
